InboundTrucks  = 12;
OutboundTrucks = 8;
InboundDoors   = 4;
OutboundDoors  = 4;
ReleaseTime    = [100,86,10,114,111,72,73,68,62,61,16,112];
UnloadTime     = [30,16,22,19,26,13,26,35,24,35,14,27];
LoadTime       = [5,11,25,21,11,10,26,15];
TransferTime   = [| 15,0,0,28,0,0,41,0 | 0,17,0,0,0,0,0,0 | 0,16,0,0,0,16,0,43 | 0,40,0,0,0,0,43,34 | 0,0,0,34,0,0,0,0 | 0,0,16,0,0,16,0,0 | 42,0,44,29,0,29,0,18 | 0,0,0,0,12,0,0,36 | 0,0,0,0,0,0,0,32 | 0,0,0,0,0,0,0,40 | 34,0,0,0,13,0,0,48 | 0,0,38,0,0,0,0,0 |];
